# sets
set Productos := Mesas Sillas;
set Tipo_ficha := 4P 8P;

# parametros
param Utilidad:=
Mesas 16
Sillas 13;

param Fichas_req:=
4P Mesas 3
4P Sillas 2
8P Mesas 1
8P Sillas 2
;

param TF:=
8P 17 
4P 18;

